&CONTROL
  calculation='relax',
  prefix='calc',
  pseudo_dir='/gpfs/pace1/project/chbe-medford/medford-share/data/pseudos/SSSP_eff_PBE',
  outdir='.',
  tefield=.true.,
  dipfield=.true.,
  tprnfor=.true.,
/
&SYSTEM
  ibrav=0,
  celldm(1)=1.8897261245650618d0,
  nat=50,
  ntyp=4,
  ecutwfc=29.3994590327d0,
  ecutrho=293.994590327d0,
  nbnd=211,
  occupations='smearing',
  smearing='fd',
  degauss=0.00734986475817d0,
  nspin=2,
  starting_magnetization(1)=0.0d0,
  starting_magnetization(2)=0.0d0,
  starting_magnetization(3)=0.0d0,
  starting_magnetization(4)=0.0111111111111d0,
  input_dft='BEEF-vdW',
  ensemble_energies=.true.,
  print_ensemble_energies=.true.,
  edir=3,
  emaxpos=0.984080563369d0,
  eopreg=0.025d0,
  eamp=0.0d0,
/
&ELECTRONS
  diagonalization='david',
  conv_thr=7.34986475817e-08,
  mixing_beta=0.05d0,
  electron_maxstep=1000,
  startingwfc='atomic',
  conv_thr=7.34986475817e-08,
/
&IONS
  ion_dynamics='ase3',
/
CELL_PARAMETERS
    6.579727202290808d0     0.000000000000000d0     0.000000000000000d0
   -0.000775132442404d0     5.961596420607155d0     0.000000000000000d0
    0.000000000000000d0    -0.000000000000000d0    25.155947251439940d0
ATOMIC_SPECIES
Ti1 47.88d0 Ti.UPF
O1 15.9994d0 O.UPF
N1 14.0067d0 N.UPF
N2 14.0067d0 N.UPF
ATOMIC_POSITIONS {crystal}
Ti1      0.000123603383822d0     0.499897385958536d0     0.238512187198856d0
Ti1      0.500142521004230d0     0.250038178055688d0     0.238522014307695d0
O1       0.000095322930372d0     0.000084774873452d0     0.317452257936818d0
O1       0.500112315057126d0     0.000084209992886d0     0.290342007718641d0
O1       0.698270105622955d0     0.250236102495782d0     0.369213011426276d0
O1       0.301995368073695d0     0.249987007385122d0     0.369214717028816d0
Ti1      0.500209519959156d0     0.497275298522491d0     0.364401667584989d0
Ti1      0.000247391645072d0     0.250088618528058d0     0.373079093475113d0
O1       0.499671646403168d0     0.000143851960116d0     0.451075634000663d0
O1       0.000224121905019d0     0.000128251067978d0     0.420054494675827d0
O1       0.196992582445542d0     0.250321094909135d0     0.502906262062537d0
O1       0.802258643566726d0     0.250167295278085d0     0.502761649698712d0
Ti1      0.000400457286622d0     0.500277093975786d0     0.510290369548905d0
Ti1      0.500707733771332d0     0.250500941318736d0     0.496907664270289d0
O1       0.999577851581747d0     0.000106456616462d0     0.583041517094874d0
O1       0.499675279354447d0     0.000115729750607d0     0.553443491209383d0
O1       0.688496354230532d0     0.248483514907620d0     0.638836163258340d0
O1       0.310384989924333d0     0.248828768685471d0     0.638788693510763d0
Ti1      0.499686882835694d0     0.500139301873546d0     0.626515600841872d0
Ti1      0.999149771257259d0     0.250116663968541d0     0.643198295253037d0
O1       0.500093721748991d0     0.000084921243389d0     0.186906639369252d0
O1       0.999660782785833d0     0.000282538323186d0     0.685773303138803d0
O1       0.198268504441574d0     0.250236248865719d0     0.238667392858710d0
O1       0.801993766892314d0     0.249987153755059d0     0.238669098461250d0
Ti1      0.000123603383822d0     0.999897385958536d0     0.238512187198856d0
Ti1      0.500142521004230d0     0.750038178055688d0     0.238522014307695d0
O1       0.000095322930372d0     0.500084774873452d0     0.317452257936818d0
O1       0.500112315057126d0     0.500084209992886d0     0.290342007718641d0
O1       0.698270105622955d0     0.750236102495782d0     0.369213011426276d0
O1       0.301995368073695d0     0.749987007385122d0     0.369214717028816d0
Ti1      0.500186002367403d0     0.997269024369204d0     0.364433014806763d0
Ti1      0.000246998951726d0     0.750073823192694d0     0.373078809692303d0
O1       0.499725761812015d0     0.500100780868733d0     0.451158061796669d0
O1       0.000151271486635d0     0.500117741656176d0     0.420023914600550d0
O1       0.196987656190932d0     0.750044592851467d0     0.502890281026767d0
O1       0.802262832931908d0     0.750153033076293d0     0.502744780805778d0
Ti1      0.000378047520009d0     0.000260704969749d0     0.510188339164868d0
Ti1      0.500709959377613d0     0.749783535087054d0     0.496902255529080d0
O1       0.999319936010930d0     0.500187046792913d0     0.583155651437892d0
O1       0.499954057321988d0     0.500190194409446d0     0.554383527833639d0
O1       0.688479671261826d0     0.751910172512783d0     0.638865187058056d0
O1       0.310406777116800d0     0.751522900363291d0     0.638821199302744d0
Ti1      0.498977948868709d0     0.000138749930798d0     0.624913050701379d0
Ti1      0.999147370268814d0     0.750572197697657d0     0.643203831439853d0
O1       0.500093721748991d0     0.500084921243389d0     0.186906639369252d0
O1       0.999254495700016d0     0.500236186369523d0     0.685734832222198d0
O1       0.198268504441574d0     0.750236248865719d0     0.238667392858710d0
O1       0.801993766892315d0     0.749987153755059d0     0.238669098461250d0
N1       0.484718728282981d0     0.503471138901687d0     0.781254487367884d0
N2       0.497146380408569d0     0.500571492333121d0     0.737249786144485d0
K_POINTS automatic
4 4 1 0 0 0
