&CONTROL
  calculation = 'scf'
  max_seconds = 1700
  outdir = './out/'
  prefix = 'aiida'
  pseudo_dir = './pseudo/'
  restart_mode = 'from_scratch'
  verbosity = 'high'
/
&SYSTEM
  degauss =   2.0000000000d-02
  ecutrho =   4.0000000000d+02
  ecutwfc =   5.0000000000d+01
  ibrav = 0
  nat = 2
  ntyp = 2
  occupations = 'smearing'
  smearing = 'cold'
/
&ELECTRONS
  conv_thr =   4.0000000000d-11
  electron_maxstep = 100
/
&IONS
/
&CELL
/
ATOMIC_SPECIES
F      18.9984 f_pbe_v1.4.uspp.F.UPF
Na     22.98977 Na_pbe_v1.uspp.F.UPF
ATOMIC_POSITIONS angstrom
F            2.2712940000       2.2712940000       2.2712940000 
Na           4.5425880000       2.2712940000       2.2712940000 
K_POINTS automatic
12 12 12 0 0 0
CELL_PARAMETERS angstrom
      0.0000000000       2.2712940000       2.2712940000
      2.2712940000       0.0000000000       2.2712940000
      2.2712940000       2.2712940000       0.0000000000
