Ti  O Ti  O Ti  O Ti  O Ti  O Ti  O Ti  O Ti  O  N 
 1.0000000000000000
     6.5797272022908082    0.0000000000000000    0.0000000000000000
    -0.0007751324424035    5.9615964206071554    0.0000000000000000
     0.0000000000000000   -0.0000000000000000   25.1559472514399403
   2   4   2   4   2   4   2   4   2   4   2   4   2   4   2   4   2
Selective dynamics
Cartesian
  0.0004257898650990  2.9801864668012850  6.0000000000000009   F   F   F
  3.2906075377701827  1.4906267073119215  6.0002472102315876   F   F   F
  0.0006271331662157  0.0005053935821280  7.9858122555091118   F   F   F
  3.2906025383081050  0.0005020259921713  7.3038282310472891   F   F   F
  4.5942328423925272  1.4918066529455385  9.2879030399847018   F   F   F
  1.9868533652407101  1.4903216484254360  9.2879459460322309   F   F   F
  3.2908567311033980  2.9645546397280347  9.1668691281047430   T   T   T
  0.0014339177350043  1.4909274130514618  9.3851579960749838   T   T   T
  3.2877030125480400  0.0008575873305257 11.3472348553305071   T   T   T
  0.0014745615835175  0.0007645811077957 10.5668687107953687   T   T   T
  1.2959634213647651  1.4923133434127622 12.6510834008640209   T   T   T
  5.2784491075623157  1.4913964520828076 12.6474455398677144   T   T   T
  0.0022471186964126  2.9824501327577946 12.8368376192900442   T   T   T
  3.2943261248861502  1.4933855151245012 12.5001829912196296   T   T   T
 -0.0027777039489636  0.0006346513836506 14.6669616494381678   T   T   T
  3.2877269381748317  0.0006899340669753 13.9223952715159900   T   T   T
  4.5299255829748724  1.4813584330531537 16.0705288252390837   T   T   T
  2.0420556861366803  1.4834166967393907 16.0693346787729787   T   T   T
  3.2874157014233147  2.9816286718542924 15.7605934069823235   T   T   T
 -0.0057881467274090  1.4910946086490569 16.1802623876014984   T   T   T
  3.2904801988614780  0.0005062661806227  4.7018135609168201   F   F   F
 -0.0022321757361579  0.0016843794561889 17.2512770402054549   T   T   T
  1.3043587057969790  1.4918075255440333  6.0039043453924084   F   F   F
  5.2767064309359757  1.4903225210239310  6.0039472514399410   F   F   F
  0.0000382236438973  5.9609846771048627  6.0000000000000009   F   F   F
  3.2902199715489808  4.4714249176154990  6.0002472102315876   F   F   F
  0.0002395669450140  2.9813036038857059  7.9858122555091118   F   F   F
  3.2902149720869032  2.9813002362957488  7.3038282310472891   F   F   F
  4.5938452761713258  4.4726048632491162  9.2879030399847018   F   F   F
  1.9864657990195083  4.4711198587290140  9.2879459460322309   F   F   F
  3.2903144304073053  5.9453154460618336  9.1676576971621735   T   T   T
  0.0010437791670529  4.4716374195366910  9.3851508572495810   T   T   T
  3.2876715443402889  2.9813990251698805 11.3493084046188848   T   T   T
  0.0006076676289658  2.9815001385395914 10.5660994400347388   T   T   T
  1.2955436560578186  4.4714631600390549 12.6506813827711486   T   T   T
  5.2780891172762550  4.4721096368952322 12.6470211868868745   T   T   T
  0.0017121150278773  5.9631506384216459 12.8342709483311612   T   T   T
  3.2939537586319769  4.4699068390051622 12.5000469292110576   T   T   T
 -0.0048623467354194  2.9819133077946951 14.6698328069507049   T   T   T
  3.2891735972100857  2.9819320726141521 13.9460427832502045   T   T   T
  4.5294255912571790  4.4825849930703185 16.0712589464137636   T   T   T
  2.0418093853895480  4.4802762328101009 16.0701523927614183   T   T   T
  3.2823635435227430  5.9624235916979584 15.7202797401803060   T   T   T
 -0.0061918638965657  4.4746085272016014 16.1804016556250154   T   T   T
  3.2900926326402762  2.9813044764842003  4.7018135609168201   F   F   F
 -0.0052929642189474  2.9822062581187243 17.2503092678566397   T   T   T
  1.3039711395757771  4.4726057358476110  6.0039043453924084   F   F   F
  5.2763188647147743  4.4711207313275088  6.0039472514399410   F   F   F
  3.1889267451297627  3.0014917395553051 19.6531966741772415   T   T   T
  3.2706995534912262  2.9842052169511168 18.5462167313860391   T   T   T
